WARNING: for repeatability, setting FPU to use double precision
============================[ Problem Statistics ]=============================
|                                                                             |
|  Number of variables:        221256                                         |
|  Number of clauses:          505639                                         |
|  Parse time:                   0.29 s                                       |
|                                                                             |
============================[ Search Statistics ]==============================
| Conflicts |          ORIGINAL         |          LEARNT          | Progress |
|           |    Vars  Clauses Literals |    Limit  Clauses Lit/Cl |          |
===============================================================================
|       100 |  121432   483117  1086466 |   177142      100     12 | 45.117 % |
|       250 |  121432   483117  1086466 |   194857      250     26 | 45.117 % |
|       475 |  121432   483117  1086466 |   214342      475     42 | 45.117 % |
|       812 |  121432   483117  1086466 |   235777      812     35 | 45.117 % |
===============================================================================
restarts              : 7
conflicts             : 1082           (773 /sec)
decisions             : 19614          (0.00 % random) (14009 /sec)
propagations          : 3795577        (2710958 /sec)
conflict literals     : 53852          (2.32 % deleted)
Memory used           : 56.00 MB
CPU time              : 1.40009 s

SATISFIABLE
